data;

set A := 84 990 750 442 402 850 68 668 360 412 860 380 90 796 116 966 640 654 156 106 686 60 906 136 122 898 348 744 376 312 1000 852 842 644 564 202 968 46 984 548 472 310 16 704 328 394 936 440 854 758 806 576 662 908 354 304 928 520 702 244 546 404 692 958 624 970 912 148 172 434 802 698 974 252 34 846 902 856 944 426 756 86 730 356 554 370 582 456 894 208 874 146;
param T := 23000;

end;
